amountOfEmployees = 30;
horizonLength = 28;
amountOfShifts = 4;

shiftsPerDay = [|2,5,2,0,
|0,0,0,0,
|0,0,0,0,
|0,0,0,0,
|4,6,2,0,
|2,2,1,0,
|3,3,6,0,
|0,0,0,0,
|0,0,0,0,
|0,0,0,0,
|6,5,2,0,
|4,4,2,0,
|6,6,2,0,
|7,7,3,0,
|0,0,0,0,
|0,0,0,0,
|7,5,2,0,
|0,0,0,0,
|0,0,0,0,
|0,0,0,0,
|0,0,0,0,
|6,8,3,0,
|10,3,5,0,
|0,0,0,0,
|0,0,0,0,
|8,3,4,0,
|0,0,0,0,
|5,2,5,0,
|];

preferences = array3d(1..30,1..28,1..4,[3,3,3,3,3,4,4,4,2,3,3,3,3,3,3,3,2,3,3,3,3,4,4,4,3,3,3,3,3,4,4,4,2,3,3,3,2,3,3,3,3,3,3,3,3,4,4,4,3,3,3,3,2,3,3,3,2,3,3,3,2,3,3,3,3,3,3,3,3,4,4,4,3,3,3,3,2,3,3,3,2,3,3,3,3,4,4,4,2,3,3,3,3,4,4,4,3,3,3,3,3,3,3,3,3,3,3,3,3,3,3,3,2,2,3,2,1,2,2,2,3,2,2,2,2,2,3,2,3,2,2,2,1,2,2,2,2,2,3,2,1,2,2,2,3,2,2,2,3,2,2,2,2,2,3,2,1,2,2,2,2,2,3,2,3,2,2,2,3,2,2,2,3,2,2,2,2,2,3,2,1,2,2,2,2,2,3,2,3,2,2,2,3,2,2,2,1,2,2,2,3,2,2,2,1,2,2,2,2,2,3,2,2,2,3,2,2,2,3,2,2,2,3,2,3,3,1,3,3,1,1,1,3,4,3,3,3,3,1,3,3,4,3,3,3,1,1,1,3,3,1,3,3,1,1,1,3,4,3,3,3,4,3,3,3,3,1,3,3,1,1,1,3,3,1,3,3,4,3,3,3,4,3,3,3,4,3,3,3,3,1,3,3,1,1,1,3,3,1,3,3,4,3,3,3,4,3,3,3,1,1,1,3,4,3,3,3,1,1,1,3,3,1,3,3,3,1,3,3,3,1,3,3,3,1,3,3,1,3,3,1,2,2,2,3,4,3,3,3,1,3,3,3,4,3,3,1,2,2,2,3,1,3,3,1,2,2,2,3,4,3,3,3,4,3,3,3,1,3,3,1,2,2,2,3,1,3,3,3,4,3,3,3,4,3,3,3,4,3,3,3,1,3,3,1,2,2,2,3,1,3,3,3,4,3,3,3,4,3,3,1,2,2,2,3,4,3,3,1,2,2,2,3,1,3,3,3,1,3,3,3,1,3,3,3,1,3,3,4,2,2,4,4,2,2,2,4,3,4,4,4,2,2,4,4,3,4,4,4,2,2,2,4,2,2,4,4,2,2,2,4,3,4,4,4,3,4,4,4,2,2,4,4,2,2,2,4,2,2,4,4,3,4,4,4,3,4,4,4,3,4,4,4,2,2,4,4,2,2,2,4,2,2,4,4,3,4,4,4,3,4,4,4,2,2,2,4,3,4,4,4,2,2,2,4,2,2,4,4,2,2,4,4,2,2,4,4,2,2,4,2,1,1,2,3,2,2,2,2,1,2,2,2,1,1,2,2,1,2,2,3,2,2,2,2,1,1,2,3,2,2,2,2,1,2,2,2,1,2,2,2,1,1,2,3,2,2,2,2,1,1,2,2,1,2,2,2,1,2,2,2,1,2,2,2,1,1,2,3,2,2,2,2,1,1,2,2,1,2,2,2,1,2,2,3,2,2,2,2,1,2,2,3,2,2,2,2,1,1,2,2,1,1,2,2,1,1,2,2,1,1,2,3,1,1,3,3,2,2,2,3,1,3,3,3,1,1,3,3,1,3,3,3,2,2,2,3,1,1,3,3,2,2,2,3,1,3,3,3,1,3,3,3,1,1,3,3,2,2,2,3,1,1,3,3,1,3,3,3,1,3,3,3,1,3,3,3,1,1,3,3,2,2,2,3,1,1,3,3,1,3,3,3,1,3,3,3,2,2,2,3,1,3,3,3,2,2,2,3,1,1,3,3,1,1,3,3,1,1,3,3,1,1,3,2,4,2,2,3,2,2,2,2,4,2,2,2,4,2,2,2,4,2,2,3,2,2,2,2,4,2,2,3,2,2,2,2,4,2,2,2,4,2,2,2,4,2,2,3,2,2,2,2,4,2,2,2,4,2,2,2,4,2,2,2,4,2,2,2,4,2,2,3,2,2,2,2,4,2,2,2,4,2,2,2,4,2,2,3,2,2,2,2,4,2,2,3,2,2,2,2,4,2,2,2,4,2,2,2,4,2,2,2,4,2,2,2,1,2,2,4,2,2,2,2,1,2,2,2,1,2,2,2,1,2,2,4,2,2,2,2,1,2,2,4,2,2,2,2,1,2,2,2,1,2,2,2,1,2,2,4,2,2,2,2,1,2,2,2,1,2,2,2,1,2,2,2,1,2,2,2,1,2,2,4,2,2,2,2,1,2,2,2,1,2,2,2,1,2,2,4,2,2,2,2,1,2,2,4,2,2,2,2,1,2,2,2,1,2,2,2,1,2,2,2,1,2,2,2,2,1,2,3,2,2,2,2,4,2,2,2,2,1,2,2,4,2,2,3,2,2,2,2,2,1,2,3,2,2,2,2,4,2,2,2,4,2,2,2,2,1,2,3,2,2,2,2,2,1,2,2,4,2,2,2,4,2,2,2,4,2,2,2,2,1,2,3,2,2,2,2,2,1,2,2,4,2,2,2,4,2,2,3,2,2,2,2,4,2,2,3,2,2,2,2,2,1,2,2,2,1,2,2,2,1,2,2,2,1,2,2,2,3,3,1,4,4,4,3,4,3,3,2,2,3,3,3,4,3,3,1,4,4,4,2,2,3,3,1,4,4,4,3,4,3,3,3,4,3,3,2,2,3,3,1,4,4,4,2,2,3,3,3,4,3,3,3,4,3,3,3,4,3,3,2,2,3,3,1,4,4,4,2,2,3,3,3,4,3,3,3,4,3,3,1,4,4,4,3,4,3,3,1,4,4,4,2,2,3,3,2,2,3,3,2,2,3,3,2,2,3,3,2,1,2,2,2,3,3,3,2,3,2,2,2,1,2,2,2,3,2,2,2,3,3,3,2,1,2,2,2,3,3,3,2,3,2,2,2,3,2,2,2,1,2,2,2,3,3,3,2,1,2,2,2,3,2,2,2,3,2,2,2,3,2,2,2,1,2,2,2,3,3,3,2,1,2,2,2,3,2,2,2,3,2,2,2,3,3,3,2,3,2,2,2,3,3,3,2,1,2,2,2,1,2,2,2,1,2,2,2,1,2,2,4,3,4,4,3,1,1,1,4,1,4,4,4,3,4,4,4,1,4,4,3,1,1,1,4,3,4,4,3,1,1,1,4,1,4,4,4,1,4,4,4,3,4,4,3,1,1,1,4,3,4,4,4,1,4,4,4,1,4,4,4,1,4,4,4,3,4,4,3,1,1,1,4,3,4,4,4,1,4,4,4,1,4,4,3,1,1,1,4,1,4,4,3,1,1,1,4,3,4,4,4,3,4,4,4,3,4,4,4,3,4,4,4,4,2,4,2,1,1,1,4,1,4,4,4,4,2,4,4,1,4,4,2,1,1,1,4,4,2,4,2,1,1,1,4,1,4,4,4,1,4,4,4,4,2,4,2,1,1,1,4,4,2,4,4,1,4,4,4,1,4,4,4,1,4,4,4,4,2,4,2,1,1,1,4,4,2,4,4,1,4,4,4,1,4,4,2,1,1,1,4,1,4,4,2,1,1,1,4,4,2,4,4,4,2,4,4,4,2,4,4,4,2,4,1,1,1,1,1,3,3,3,1,1,1,1,1,1,1,1,1,1,1,1,1,3,3,3,1,1,1,1,1,3,3,3,1,1,1,1,1,1,1,1,1,1,1,1,1,3,3,3,1,1,1,1,1,1,1,1,1,1,1,1,1,1,1,1,1,1,1,1,1,3,3,3,1,1,1,1,1,1,1,1,1,1,1,1,1,3,3,3,1,1,1,1,1,3,3,3,1,1,1,1,1,1,1,1,1,1,1,1,1,1,1,1,1,4,2,1,4,3,3,3,1,3,1,1,1,4,2,1,1,3,1,1,4,3,3,3,1,4,2,1,4,3,3,3,1,3,1,1,1,3,1,1,1,4,2,1,4,3,3,3,1,4,2,1,1,3,1,1,1,3,1,1,1,3,1,1,1,4,2,1,4,3,3,3,1,4,2,1,1,3,1,1,1,3,1,1,4,3,3,3,1,3,1,1,4,3,3,3,1,4,2,1,1,4,2,1,1,4,2,1,1,4,2,1,1,1,1,1,4,4,4,4,1,4,1,1,1,1,1,1,1,4,1,1,4,4,4,4,1,1,1,1,4,4,4,4,1,4,1,1,1,4,1,1,1,1,1,1,4,4,4,4,1,1,1,1,1,4,1,1,1,4,1,1,1,4,1,1,1,1,1,1,4,4,4,4,1,1,1,1,1,4,1,1,1,4,1,1,4,4,4,4,1,4,1,1,4,4,4,4,1,1,1,1,1,1,1,1,1,1,1,1,1,1,1,1,3,1,3,3,3,1,1,1,3,4,3,3,3,1,3,3,3,4,3,3,3,1,1,1,3,1,3,3,3,1,1,1,3,4,3,3,3,4,3,3,3,1,3,3,3,1,1,1,3,1,3,3,3,4,3,3,3,4,3,3,3,4,3,3,3,1,3,3,3,1,1,1,3,1,3,3,3,4,3,3,3,4,3,3,3,1,1,1,3,4,3,3,3,1,1,1,3,1,3,3,3,1,3,3,3,1,3,3,3,1,3,3,2,2,1,2,3,2,2,2,2,3,2,2,2,2,1,2,2,3,2,2,3,2,2,2,2,2,1,2,3,2,2,2,2,3,2,2,2,3,2,2,2,2,1,2,3,2,2,2,2,2,1,2,2,3,2,2,2,3,2,2,2,3,2,2,2,2,1,2,3,2,2,2,2,2,1,2,2,3,2,2,2,3,2,2,3,2,2,2,2,3,2,2,3,2,2,2,2,2,1,2,2,2,1,2,2,2,1,2,2,2,1,2,3,3,2,3,3,1,1,1,3,1,3,3,3,3,2,3,3,1,3,3,3,1,1,1,3,3,2,3,3,1,1,1,3,1,3,3,3,1,3,3,3,3,2,3,3,1,1,1,3,3,2,3,3,1,3,3,3,1,3,3,3,1,3,3,3,3,2,3,3,1,1,1,3,3,2,3,3,1,3,3,3,1,3,3,3,1,1,1,3,1,3,3,3,1,1,1,3,3,2,3,3,3,2,3,3,3,2,3,3,3,2,3,2,2,3,2,3,2,2,2,2,1,2,2,2,2,3,2,2,1,2,2,3,2,2,2,2,2,3,2,3,2,2,2,2,1,2,2,2,1,2,2,2,2,3,2,3,2,2,2,2,2,3,2,2,1,2,2,2,1,2,2,2,1,2,2,2,2,3,2,3,2,2,2,2,2,3,2,2,1,2,2,2,1,2,2,3,2,2,2,2,1,2,2,3,2,2,2,2,2,3,2,2,2,3,2,2,2,3,2,2,2,3,2,3,2,3,3,3,2,2,2,3,4,3,3,3,2,3,3,3,4,3,3,3,2,2,2,3,2,3,3,3,2,2,2,3,4,3,3,3,4,3,3,3,2,3,3,3,2,2,2,3,2,3,3,3,4,3,3,3,4,3,3,3,4,3,3,3,2,3,3,3,2,2,2,3,2,3,3,3,4,3,3,3,4,3,3,3,2,2,2,3,4,3,3,3,2,2,2,3,2,3,3,3,2,3,3,3,2,3,3,3,2,3,3,1,1,1,1,2,1,1,1,1,3,1,1,1,1,1,1,1,3,1,1,2,1,1,1,1,1,1,1,2,1,1,1,1,3,1,1,1,3,1,1,1,1,1,1,2,1,1,1,1,1,1,1,1,3,1,1,1,3,1,1,1,3,1,1,1,1,1,1,2,1,1,1,1,1,1,1,1,3,1,1,1,3,1,1,2,1,1,1,1,3,1,1,2,1,1,1,1,1,1,1,1,1,1,1,1,1,1,1,1,1,1,1,3,2,3,3,4,2,2,2,3,3,3,3,3,2,3,3,3,3,3,3,4,2,2,2,3,2,3,3,4,2,2,2,3,3,3,3,3,3,3,3,3,2,3,3,4,2,2,2,3,2,3,3,3,3,3,3,3,3,3,3,3,3,3,3,3,2,3,3,4,2,2,2,3,2,3,3,3,3,3,3,3,3,3,3,4,2,2,2,3,3,3,3,4,2,2,2,3,2,3,3,3,2,3,3,3,2,3,3,3,2,3,3,3,2,1,3,2,2,2,2,3,3,3,3,3,2,1,3,3,3,3,3,2,2,2,2,3,2,1,3,2,2,2,2,3,3,3,3,3,3,3,3,3,2,1,3,2,2,2,2,3,2,1,3,3,3,3,3,3,3,3,3,3,3,3,3,3,2,1,3,2,2,2,2,3,2,1,3,3,3,3,3,3,3,3,3,2,2,2,2,3,3,3,3,2,2,2,2,3,2,1,3,3,2,1,3,3,2,1,3,3,2,1,3,2,2,2,2,4,4,4,4,2,1,2,2,2,2,2,2,2,1,2,2,4,4,4,4,2,2,2,2,4,4,4,4,2,1,2,2,2,1,2,2,2,2,2,2,4,4,4,4,2,2,2,2,2,1,2,2,2,1,2,2,2,1,2,2,2,2,2,2,4,4,4,4,2,2,2,2,2,1,2,2,2,1,2,2,4,4,4,4,2,1,2,2,4,4,4,4,2,2,2,2,2,2,2,2,2,2,2,2,2,2,2,2,1,2,2,1,3,1,1,1,1,4,1,1,1,2,2,1,1,4,1,1,3,1,1,1,1,2,2,1,3,1,1,1,1,4,1,1,1,4,1,1,1,2,2,1,3,1,1,1,1,2,2,1,1,4,1,1,1,4,1,1,1,4,1,1,1,2,2,1,3,1,1,1,1,2,2,1,1,4,1,1,1,4,1,1,3,1,1,1,1,4,1,1,3,1,1,1,1,2,2,1,1,2,2,1,1,2,2,1,1,2,2,1,3,1,3,3,4,1,1,1,3,4,3,3,3,1,3,3,3,4,3,3,4,1,1,1,3,1,3,3,4,1,1,1,3,4,3,3,3,4,3,3,3,1,3,3,4,1,1,1,3,1,3,3,3,4,3,3,3,4,3,3,3,4,3,3,3,1,3,3,4,1,1,1,3,1,3,3,3,4,3,3,3,4,3,3,4,1,1,1,3,4,3,3,4,1,1,1,3,1,3,3,3,1,3,3,3,1,3,3,3,1,3,3,3,3,1,3,4,3,3,3,3,1,3,3,3,3,1,3,3,1,3,3,4,3,3,3,3,3,1,3,4,3,3,3,3,1,3,3,3,1,3,3,3,3,1,3,4,3,3,3,3,3,1,3,3,1,3,3,3,1,3,3,3,1,3,3,3,3,1,3,4,3,3,3,3,3,1,3,3,1,3,3,3,1,3,3,4,3,3,3,3,1,3,3,4,3,3,3,3,3,1,3,3,3,1,3,3,3,1,3,3,3,1,3,2,1,2,2,4,1,1,1,2,1,2,2,2,1,2,2,2,1,2,2,4,1,1,1,2,1,2,2,4,1,1,1,2,1,2,2,2,1,2,2,2,1,2,2,4,1,1,1,2,1,2,2,2,1,2,2,2,1,2,2,2,1,2,2,2,1,2,2,4,1,1,1,2,1,2,2,2,1,2,2,2,1,2,2,4,1,1,1,2,1,2,2,4,1,1,1,2,1,2,2,2,1,2,2,2,1,2,2,2,1,2,2,]);

minShifts = 20;
maxShifts = 20;
minConsecShifts = 1;
maxConsecShifts = 7;

minConsecSameShifts = [1,1,1,1];
maxConsecSameShifts = [7,7,7,7];

minPerShifts = [0,0,0,0];
maxPerShifts = [20,20,20,20];